p wcnf 144 216 217 
1 15 -120 0 
1 -58 -16 0 
1 -34 105 0 
1 59 67 0 
1 56 41 0 
1 45 -135 0 
1 84 -77 0 
1 -71 -6 0 
1 -115 32 0 
1 -78 -28 0 
1 -19 -10 0 
1 -110 -41 0 
1 41 110 0 
1 64 -74 0 
1 -64 -9 0 
1 1 -67 0 
1 -22 -117 0 
1 -111 13 0 
1 -118 -8 0 
1 49 114 0 
1 123 -131 0 
1 99 -134 0 
1 108 -62 0 
1 127 -22 0 
1 100 115 0 
1 -140 21 0 
1 -18 -75 0 
1 -35 -27 0 
1 113 -94 0 
1 -80 -15 0 
1 -101 -11 0 
1 -131 91 0 
1 80 -65 0 
1 91 14 0 
1 114 31 0 
1 9 47 0 
1 67 -35 0 
1 86 48 0 
1 -91 -123 0 
1 54 -79 0 
1 -107 82 0 
1 64 15 0 
1 -139 -51 0 
1 5 -25 0 
1 -20 111 0 
1 -111 -5 0 
1 -72 -138 0 
1 -123 35 0 
1 -22 -88 0 
1 -88 79 0 
1 -18 17 0 
1 128 -15 0 
1 9 40 0 
1 44 79 0 
1 -64 42 0 
1 -115 57 0 
1 -14 -32 0 
1 14 -87 0 
1 -62 -101 0 
1 134 96 0 
1 -56 -116 0 
1 139 58 0 
1 -42 86 0 
1 -46 63 0 
1 -52 -87 0 
1 -2 -143 0 
1 21 56 0 
1 118 -120 0 
1 -11 21 0 
1 105 -81 0 
1 63 -20 0 
1 22 -124 0 
1 121 61 0 
1 53 -83 0 
1 88 130 0 
1 -77 42 0 
1 128 122 0 
1 125 85 0 
1 -108 -53 0 
1 -131 -62 0 
1 -23 -7 0 
1 -21 -131 0 
1 30 -60 0 
1 -11 -84 0 
1 117 21 0 
1 27 78 0 
1 126 137 0 
1 -36 34 0 
1 -96 16 0 
1 -88 49 0 
1 13 93 0 
1 -49 -86 0 
1 110 -69 0 
1 141 -111 0 
1 8 90 0 
1 88 -127 0 
1 93 -135 0 
1 120 -37 0 
1 -125 79 0 
1 -91 94 0 
1 9 7 0 
1 123 -56 0 
1 80 -8 0 
1 -82 -36 0 
1 -137 -131 0 
1 26 -102 0 
1 92 -126 0 
1 36 -133 0 
1 22 58 0 
1 21 -44 0 
1 36 -49 0 
1 9 1 0 
1 50 119 0 
1 5 -89 0 
1 -65 3 0 
1 7 -91 0 
1 91 -134 0 
1 -63 123 0 
1 -33 17 0 
1 50 -58 0 
1 75 -20 0 
1 61 90 0 
1 67 -73 0 
1 47 43 0 
1 33 134 0 
1 115 -81 0 
1 -110 -17 0 
1 -108 106 0 
1 44 -33 0 
1 -84 -94 0 
1 25 -65 0 
1 -5 74 0 
1 64 101 0 
1 -90 -95 0 
1 85 95 0 
1 -80 10 0 
1 -112 32 0 
1 37 32 0 
1 -45 11 0 
1 141 105 0 
1 15 126 0 
1 67 43 0 
1 128 140 0 
1 -79 103 0 
1 -122 72 0 
1 107 4 0 
1 15 119 0 
1 13 -72 0 
1 116 -76 0 
1 128 89 0 
1 -131 18 0 
1 61 -124 0 
1 -124 -55 0 
1 126 128 0 
1 65 -100 0 
1 -133 113 0 
1 -86 107 0 
1 49 51 0 
1 -104 92 0 
1 118 -22 0 
1 123 5 0 
1 -69 -110 0 
1 -80 112 0 
1 89 -141 0 
1 108 -39 0 
1 -88 19 0 
1 -129 -22 0 
1 20 -36 0 
1 62 -74 0 
1 -28 -13 0 
1 -103 -34 0 
1 -92 -77 0 
1 -107 -24 0 
1 91 -140 0 
1 55 121 0 
1 80 -61 0 
1 -70 -18 0 
1 134 126 0 
1 87 144 0 
1 -139 50 0 
1 -95 1 0 
1 4 -123 0 
1 -94 89 0 
1 46 -138 0 
1 -116 37 0 
1 -77 110 0 
1 -77 28 0 
1 122 -52 0 
1 -140 -102 0 
1 -29 -73 0 
1 -40 132 0 
1 -37 -46 0 
1 136 -113 0 
1 -100 -14 0 
1 -49 39 0 
1 23 114 0 
1 36 -110 0 
1 44 -103 0 
1 35 47 0 
1 15 -31 0 
1 -13 17 0 
1 76 -116 0 
1 37 -125 0 
1 -22 95 0 
1 -14 21 0 
1 -23 72 0 
1 23 -60 0 
1 -97 -140 0 
1 -109 -134 0 
1 37 -66 0 
1 -101 74 0 
1 35 125 0 
1 110 -34 0 
1 -36 -6 0 
1 55 34 0 
1 -55 -79 0 
